VRPTWMS/instances/mip/freight/Comparison/N4-C_DV10-C_SV50_F10_1_No_1.lp
\ N4-C_DV10-C_SV50_F10_1

Minimize
  174600.0 x_d0_c1 + 174600.0 z_d0_c1 + 113100.0 x_d0_c2 + 113100.0 z_d0_c2 + 250800.0 x_d0_c3 + 250800.0 z_d0_c3 + 141400.0 x_d0_c4 + 141400.0 z_d0_c4 + 98500.0 x_c1_c2 + 98500.0 x_c2_c1 + 98500.0 z_c1_c2 + 98500.0 z_c2_c1 + 330200.0 x_c1_c3 + 330200.0 x_c3_c1 + 330200.0 z_c1_c3 + 330200.0 z_c3_c1 + 36100.0 x_c1_c4 + 36100.0 x_c4_c1 + 36100.0 z_c1_c4 + 36100.0 z_c4_c1 + 234300.0 x_c2_c3 + 234300.0 x_c3_c2 + 234300.0 z_c2_c3 + 234300.0 z_c3_c2 + 84900.0 x_c2_c4 + 84900.0 x_c4_c2 + 84900.0 z_c2_c4 + 84900.0 z_c4_c2 + 318900.0 x_c3_c4 + 318900.0 x_c4_c3 + 318900.0 z_c3_c4 + 318900.0 z_c4_c3 + 174600.0 x_c1_dN + 174600.0 z_c1_dN + 113100.0 x_c2_dN + 113100.0 z_c2_dN + 250800.0 x_c3_dN + 250800.0 z_c3_dN + 141400.0 x_c4_dN + 141400.0 z_c4_dN + 1.0E7 x_d0_c1 + 1.0E7 z_d0_c1 + 1.0E7 x_d0_c2 + 1.0E7 z_d0_c2 + 1.0E7 x_d0_c3 + 1.0E7 z_d0_c3 + 1.0E7 x_d0_c4 + 1.0E7 z_d0_c4
Subject To
  Successor_DV_c1: x_c1_c2 + x_c1_c3 + x_c1_c4 + x_c1_dN = 1
  Successor_DV_c2: x_c2_c1 + x_c2_c3 + x_c2_c4 + x_c2_dN = 1
  Successor_DV_c3: x_c3_c1 + x_c3_c2 + x_c3_c4 + x_c3_dN = 1
  Successor_DV_c4: x_c4_c1 + x_c4_c2 + x_c4_c3 + x_c4_dN = 1
  Successor_SV_c1: z_c1_c2 + z_c1_c3 + z_c1_c4 + z_c1_dN <= 1
  Successor_SV_c2: z_c2_c1 + z_c2_c3 + z_c2_c4 + z_c2_dN <= 1
  Successor_SV_c3: z_c3_c1 + z_c3_c2 + z_c3_c4 + z_c3_dN <= 1
  Successor_SV_c4: z_c4_c1 + z_c4_c2 + z_c4_c3 + z_c4_dN <= 1
  Flow_DV_c1: x_d0_c1 + x_c2_c1 + x_c3_c1 + x_c4_c1 - x_c1_dN - x_c1_c2 - x_c1_c3 - x_c1_c4 = 0
  Flow_DV_c2: x_d0_c2 + x_c1_c2 + x_c3_c2 + x_c4_c2 - x_c2_dN - x_c2_c1 - x_c2_c3 - x_c2_c4 = 0
  Flow_DV_c3: x_d0_c3 + x_c1_c3 + x_c2_c3 + x_c4_c3 - x_c3_dN - x_c3_c1 - x_c3_c2 - x_c3_c4 = 0
  Flow_DV_c4: x_d0_c4 + x_c1_c4 + x_c2_c4 + x_c3_c4 - x_c4_dN - x_c4_c1 - x_c4_c2 - x_c4_c3 = 0
  Flow_SV_c1: z_d0_c1 + z_c2_c1 + z_c3_c1 + z_c4_c1 - z_c1_dN - z_c1_c2 - z_c1_c3 - z_c1_c4 = 0
  Flow_SV_c2: z_d0_c2 + z_c1_c2 + z_c3_c2 + z_c4_c2 - z_c2_dN - z_c2_c1 - z_c2_c3 - z_c2_c4 = 0
  Flow_SV_c3: z_d0_c3 + z_c1_c3 + z_c2_c3 + z_c4_c3 - z_c3_dN - z_c3_c1 - z_c3_c2 - z_c3_c4 = 0
  Flow_SV_c4: z_d0_c4 + z_c1_c4 + z_c2_c4 + z_c3_c4 - z_c4_dN - z_c4_c1 - z_c4_c2 - z_c4_c3 = 0
  travelDV_d0_c1: tauD_d0 - tauD_c1 + 1043650.0 x_d0_c1 <= 1000000.0
  travelDV_d0_c2: tauD_d0 - tauD_c2 + 1028275.0 x_d0_c2 <= 1000000.0
  travelDV_d0_c3: tauD_d0 - tauD_c3 + 1062700.0 x_d0_c3 <= 1000000.0
  travelDV_d0_c4: tauD_d0 - tauD_c4 + 1035350.0 x_d0_c4 <= 1000000.0
  travelDV_c1_c2: tauD_c1 - tauD_c2 + 1054625.0 x_c1_c2 + 80000.0 p_1 <= 1000000.0
  travelDV_c1_c3: tauD_c1 - tauD_c3 + 1112550.0 x_c1_c3 + 80000.0 p_1 <= 1000000.0
  travelDV_c1_c4: tauD_c1 - tauD_c4 + 1039025.0 x_c1_c4 + 80000.0 p_1 <= 1000000.0
  travelDV_c2_c1: tauD_c2 - tauD_c1 + 1094625.0 x_c2_c1 + 80000.0 p_2 <= 1000000.0
  travelDV_c2_c3: tauD_c2 - tauD_c3 + 1128575.0 x_c2_c3 + 80000.0 p_2 <= 1000000.0
  travelDV_c2_c4: tauD_c2 - tauD_c4 + 1091225.0 x_c2_c4 + 80000.0 p_2 <= 1000000.0
  travelDV_c3_c1: tauD_c3 - tauD_c1 + 1112550.0 x_c3_c1 + 80000.0 p_3 <= 1000000.0
  travelDV_c3_c2: tauD_c3 - tauD_c2 + 1088575.0 x_c3_c2 + 80000.0 p_3 <= 1000000.0
  travelDV_c3_c4: tauD_c3 - tauD_c4 + 1109725.0 x_c3_c4 + 80000.0 p_3 <= 1000000.0
  travelDV_c4_c1: tauD_c4 - tauD_c1 + 1069025.0 x_c4_c1 + 80000.0 p_4 <= 1000000.0
  travelDV_c4_c2: tauD_c4 - tauD_c2 + 1081225.0 x_c4_c2 + 80000.0 p_4 <= 1000000.0
  travelDV_c4_c3: tauD_c4 - tauD_c3 + 1139725.0 x_c4_c3 + 80000.0 p_4 <= 1000000.0
  TravelSV_d0_c1: tauS_d0 - tauS_c1 + 1000000.0 z_d0_c1 <= 956350.0
  TravelSV_d0_c2: tauS_d0 - tauS_c2 + 1000000.0 z_d0_c2 <= 971725.0
  TravelSV_d0_c3: tauS_d0 - tauS_c3 + 1000000.0 z_d0_c3 <= 937300.0
  TravelSV_d0_c4: tauS_d0 - tauS_c4 + 1000000.0 z_d0_c4 <= 964650.0
  TravelSV_d0_dN: tauS_d0 - tauS_dN + 1000000.0 z_d0_dN <= 1000000.0
  TravelSV_c1_c2: tauS_c1 - tauS_c2 + 1000000.0 z_c1_c2 <= 895375.0
  TravelSV_c1_c3: tauS_c1 - tauS_c3 + 1000000.0 z_c1_c3 <= 837450.0
  TravelSV_c1_c4: tauS_c1 - tauS_c4 + 1000000.0 z_c1_c4 <= 910975.0
  TravelSV_c1_dN: tauS_c1 - tauS_dN + 1000000.0 z_c1_dN <= 876350.0
  TravelSV_c2_c1: tauS_c2 - tauS_c1 + 1000000.0 z_c2_c1 <= 895375.0
  TravelSV_c2_c3: tauS_c2 - tauS_c3 + 1000000.0 z_c2_c3 <= 861425.0
  TravelSV_c2_c4: tauS_c2 - tauS_c4 + 1000000.0 z_c2_c4 <= 898775.0
  TravelSV_c2_dN: tauS_c2 - tauS_dN + 1000000.0 z_c2_dN <= 891725.0
  TravelSV_c3_c1: tauS_c3 - tauS_c1 + 1000000.0 z_c3_c1 <= 837450.0
  TravelSV_c3_c2: tauS_c3 - tauS_c2 + 1000000.0 z_c3_c2 <= 861425.0
  TravelSV_c3_c4: tauS_c3 - tauS_c4 + 1000000.0 z_c3_c4 <= 840275.0
  TravelSV_c3_dN: tauS_c3 - tauS_dN + 1000000.0 z_c3_dN <= 857300.0
  TravelSV_c4_c1: tauS_c4 - tauS_c1 + 1000000.0 z_c4_c1 <= 910975.0
  TravelSV_c4_c2: tauS_c4 - tauS_c2 + 1000000.0 z_c4_c2 <= 898775.0
  TravelSV_c4_c3: tauS_c4 - tauS_c3 + 1000000.0 z_c4_c3 <= 840275.0
  TravelSV_c4_dN: tauS_c4 - tauS_dN + 1000000.0 z_c4_dN <= 884650.0
  time_window_c1_e: tauD_c1 + 80000.0 o_1 >= 0.0
  time_window_c1_l: tauD_c1 + 80000.0 o_1 <= 1000000.0
  time_window_c2_e: tauD_c2 + 80000.0 o_2 >= 700000.0
  time_window_c2_l: tauD_c2 + 80000.0 o_2 <= 850000.0
  time_window_c3_e: tauD_c3 + 80000.0 o_3 >= 100000.0
  time_window_c3_l: tauD_c3 + 80000.0 o_3 <= 250000.0
  time_window_c4_e: tauD_c4 + 80000.0 o_4 >= 100000.0
  time_window_c4_l: tauD_c4 + 80000.0 o_4 <= 250000.0
  SyncA_c1_c2_c2: 30000.0 o_1 + 1000000.0 x_c1_c2 - tauD_c2 - 24625.0 z_c1_c2 + [ tauS_c2 * z_c1_c2 ] <= 975375.0
  SyncA_c1_c2_c3: 30000.0 o_1 + 1000000.0 x_c1_c2 - tauD_c2 - 82550.0 z_c1_c3 + [ tauS_c3 * z_c1_c3 ] <= 975375.0
  SyncA_c1_c2_c4: 30000.0 o_1 + 1000000.0 x_c1_c2 - tauD_c2 - 9025.0 z_c1_c4 + [ tauS_c4 * z_c1_c4 ] <= 975375.0
  SyncA_c1_c2_dN: 30000.0 o_1 + 1000000.0 x_c1_c2 - tauD_c2 - 43650.0 z_c1_dN + [ tauS_dN * z_c1_dN ] <= 975375.0
  SyncA_c1_c3_c2: 30000.0 o_1 + 1000000.0 x_c1_c3 - tauD_c3 - 24625.0 z_c1_c2 + [ tauS_c2 * z_c1_c2 ] <= 917450.0
  SyncA_c1_c3_c3: 30000.0 o_1 + 1000000.0 x_c1_c3 - tauD_c3 - 82550.0 z_c1_c3 + [ tauS_c3 * z_c1_c3 ] <= 917450.0
  SyncA_c1_c3_c4: 30000.0 o_1 + 1000000.0 x_c1_c3 - tauD_c3 - 9025.0 z_c1_c4 + [ tauS_c4 * z_c1_c4 ] <= 917450.0
  SyncA_c1_c3_dN: 30000.0 o_1 + 1000000.0 x_c1_c3 - tauD_c3 - 43650.0 z_c1_dN + [ tauS_dN * z_c1_dN ] <= 917450.0
  SyncA_c1_c4_c2: 30000.0 o_1 + 1000000.0 x_c1_c4 - tauD_c4 - 24625.0 z_c1_c2 + [ tauS_c2 * z_c1_c2 ] <= 990975.0
  SyncA_c1_c4_c3: 30000.0 o_1 + 1000000.0 x_c1_c4 - tauD_c4 - 82550.0 z_c1_c3 + [ tauS_c3 * z_c1_c3 ] <= 990975.0
  SyncA_c1_c4_c4: 30000.0 o_1 + 1000000.0 x_c1_c4 - tauD_c4 - 9025.0 z_c1_c4 + [ tauS_c4 * z_c1_c4 ] <= 990975.0
  SyncA_c1_c4_dN: 30000.0 o_1 + 1000000.0 x_c1_c4 - tauD_c4 - 43650.0 z_c1_dN + [ tauS_dN * z_c1_dN ] <= 990975.0
  SyncA_c1_dN_c2: 30000.0 o_1 + 1000000.0 x_c1_dN - tauD_dN - 24625.0 z_c1_c2 + [ tauS_c2 * z_c1_c2 ] <= 956350.0
  SyncA_c1_dN_c3: 30000.0 o_1 + 1000000.0 x_c1_dN - tauD_dN - 82550.0 z_c1_c3 + [ tauS_c3 * z_c1_c3 ] <= 956350.0
  SyncA_c1_dN_c4: 30000.0 o_1 + 1000000.0 x_c1_dN - tauD_dN - 9025.0 z_c1_c4 + [ tauS_c4 * z_c1_c4 ] <= 956350.0
  SyncA_c1_dN_dN: 30000.0 o_1 + 1000000.0 x_c1_dN - tauD_dN - 43650.0 z_c1_dN + [ tauS_dN * z_c1_dN ] <= 956350.0
  SyncA_c2_c1_c1: 70000.0 o_2 + 1000000.0 x_c2_c1 - tauD_c1 - 24625.0 z_c2_c1 + [ tauS_c1 * z_c2_c1 ] <= 975375.0
  SyncA_c2_c1_c3: 70000.0 o_2 + 1000000.0 x_c2_c1 - tauD_c1 - 58575.0 z_c2_c3 + [ tauS_c3 * z_c2_c3 ] <= 975375.0
  SyncA_c2_c1_c4: 70000.0 o_2 + 1000000.0 x_c2_c1 - tauD_c1 - 21225.0 z_c2_c4 + [ tauS_c4 * z_c2_c4 ] <= 975375.0
  SyncA_c2_c1_dN: 70000.0 o_2 + 1000000.0 x_c2_c1 - tauD_c1 - 28275.0 z_c2_dN + [ tauS_dN * z_c2_dN ] <= 975375.0
  SyncA_c2_c3_c1: 70000.0 o_2 + 1000000.0 x_c2_c3 - tauD_c3 - 24625.0 z_c2_c1 + [ tauS_c1 * z_c2_c1 ] <= 941425.0
  SyncA_c2_c3_c3: 70000.0 o_2 + 1000000.0 x_c2_c3 - tauD_c3 - 58575.0 z_c2_c3 + [ tauS_c3 * z_c2_c3 ] <= 941425.0
  SyncA_c2_c3_c4: 70000.0 o_2 + 1000000.0 x_c2_c3 - tauD_c3 - 21225.0 z_c2_c4 + [ tauS_c4 * z_c2_c4 ] <= 941425.0
  SyncA_c2_c3_dN: 70000.0 o_2 + 1000000.0 x_c2_c3 - tauD_c3 - 28275.0 z_c2_dN + [ tauS_dN * z_c2_dN ] <= 941425.0
  SyncA_c2_c4_c1: 70000.0 o_2 + 1000000.0 x_c2_c4 - tauD_c4 - 24625.0 z_c2_c1 + [ tauS_c1 * z_c2_c1 ] <= 978775.0
  SyncA_c2_c4_c3: 70000.0 o_2 + 1000000.0 x_c2_c4 - tauD_c4 - 58575.0 z_c2_c3 + [ tauS_c3 * z_c2_c3 ] <= 978775.0
  SyncA_c2_c4_c4: 70000.0 o_2 + 1000000.0 x_c2_c4 - tauD_c4 - 21225.0 z_c2_c4 + [ tauS_c4 * z_c2_c4 ] <= 978775.0
  SyncA_c2_c4_dN: 70000.0 o_2 + 1000000.0 x_c2_c4 - tauD_c4 - 28275.0 z_c2_dN + [ tauS_dN * z_c2_dN ] <= 978775.0
  SyncA_c2_dN_c1: 70000.0 o_2 + 1000000.0 x_c2_dN - tauD_dN - 24625.0 z_c2_c1 + [ tauS_c1 * z_c2_c1 ] <= 971725.0
  SyncA_c2_dN_c3: 70000.0 o_2 + 1000000.0 x_c2_dN - tauD_dN - 58575.0 z_c2_c3 + [ tauS_c3 * z_c2_c3 ] <= 971725.0
  SyncA_c2_dN_c4: 70000.0 o_2 + 1000000.0 x_c2_dN - tauD_dN - 21225.0 z_c2_c4 + [ tauS_c4 * z_c2_c4 ] <= 971725.0
  SyncA_c2_dN_dN: 70000.0 o_2 + 1000000.0 x_c2_dN - tauD_dN - 28275.0 z_c2_dN + [ tauS_dN * z_c2_dN ] <= 971725.0
  SyncA_c3_c1_c1: 30000.0 o_3 + 1000000.0 x_c3_c1 - tauD_c1 - 82550.0 z_c3_c1 + [ tauS_c1 * z_c3_c1 ] <= 917450.0
  SyncA_c3_c1_c2: 30000.0 o_3 + 1000000.0 x_c3_c1 - tauD_c1 - 58575.0 z_c3_c2 + [ tauS_c2 * z_c3_c2 ] <= 917450.0
  SyncA_c3_c1_c4: 30000.0 o_3 + 1000000.0 x_c3_c1 - tauD_c1 - 79725.0 z_c3_c4 + [ tauS_c4 * z_c3_c4 ] <= 917450.0
  SyncA_c3_c1_dN: 30000.0 o_3 + 1000000.0 x_c3_c1 - tauD_c1 - 62700.0 z_c3_dN + [ tauS_dN * z_c3_dN ] <= 917450.0
  SyncA_c3_c2_c1: 30000.0 o_3 + 1000000.0 x_c3_c2 - tauD_c2 - 82550.0 z_c3_c1 + [ tauS_c1 * z_c3_c1 ] <= 941425.0
  SyncA_c3_c2_c2: 30000.0 o_3 + 1000000.0 x_c3_c2 - tauD_c2 - 58575.0 z_c3_c2 + [ tauS_c2 * z_c3_c2 ] <= 941425.0
  SyncA_c3_c2_c4: 30000.0 o_3 + 1000000.0 x_c3_c2 - tauD_c2 - 79725.0 z_c3_c4 + [ tauS_c4 * z_c3_c4 ] <= 941425.0
  SyncA_c3_c2_dN: 30000.0 o_3 + 1000000.0 x_c3_c2 - tauD_c2 - 62700.0 z_c3_dN + [ tauS_dN * z_c3_dN ] <= 941425.0
  SyncA_c3_c4_c1: 30000.0 o_3 + 1000000.0 x_c3_c4 - tauD_c4 - 82550.0 z_c3_c1 + [ tauS_c1 * z_c3_c1 ] <= 920275.0
  SyncA_c3_c4_c2: 30000.0 o_3 + 1000000.0 x_c3_c4 - tauD_c4 - 58575.0 z_c3_c2 + [ tauS_c2 * z_c3_c2 ] <= 920275.0
  SyncA_c3_c4_c4: 30000.0 o_3 + 1000000.0 x_c3_c4 - tauD_c4 - 79725.0 z_c3_c4 + [ tauS_c4 * z_c3_c4 ] <= 920275.0
  SyncA_c3_c4_dN: 30000.0 o_3 + 1000000.0 x_c3_c4 - tauD_c4 - 62700.0 z_c3_dN + [ tauS_dN * z_c3_dN ] <= 920275.0
  SyncA_c3_dN_c1: 30000.0 o_3 + 1000000.0 x_c3_dN - tauD_dN - 82550.0 z_c3_c1 + [ tauS_c1 * z_c3_c1 ] <= 937300.0
  SyncA_c3_dN_c2: 30000.0 o_3 + 1000000.0 x_c3_dN - tauD_dN - 58575.0 z_c3_c2 + [ tauS_c2 * z_c3_c2 ] <= 937300.0
  SyncA_c3_dN_c4: 30000.0 o_3 + 1000000.0 x_c3_dN - tauD_dN - 79725.0 z_c3_c4 + [ tauS_c4 * z_c3_c4 ] <= 937300.0
  SyncA_c3_dN_dN: 30000.0 o_3 + 1000000.0 x_c3_dN - tauD_dN - 62700.0 z_c3_dN + [ tauS_dN * z_c3_dN ] <= 937300.0
  SyncA_c4_c1_c1: 60000.0 o_4 + 1000000.0 x_c4_c1 - tauD_c1 - 9025.0 z_c4_c1 + [ tauS_c1 * z_c4_c1 ] <= 990975.0
  SyncA_c4_c1_c2: 60000.0 o_4 + 1000000.0 x_c4_c1 - tauD_c1 - 21225.0 z_c4_c2 + [ tauS_c2 * z_c4_c2 ] <= 990975.0
  SyncA_c4_c1_c3: 60000.0 o_4 + 1000000.0 x_c4_c1 - tauD_c1 - 79725.0 z_c4_c3 + [ tauS_c3 * z_c4_c3 ] <= 990975.0
  SyncA_c4_c1_dN: 60000.0 o_4 + 1000000.0 x_c4_c1 - tauD_c1 - 35350.0 z_c4_dN + [ tauS_dN * z_c4_dN ] <= 990975.0
  SyncA_c4_c2_c1: 60000.0 o_4 + 1000000.0 x_c4_c2 - tauD_c2 - 9025.0 z_c4_c1 + [ tauS_c1 * z_c4_c1 ] <= 978775.0
  SyncA_c4_c2_c2: 60000.0 o_4 + 1000000.0 x_c4_c2 - tauD_c2 - 21225.0 z_c4_c2 + [ tauS_c2 * z_c4_c2 ] <= 978775.0
  SyncA_c4_c2_c3: 60000.0 o_4 + 1000000.0 x_c4_c2 - tauD_c2 - 79725.0 z_c4_c3 + [ tauS_c3 * z_c4_c3 ] <= 978775.0
  SyncA_c4_c2_dN: 60000.0 o_4 + 1000000.0 x_c4_c2 - tauD_c2 - 35350.0 z_c4_dN + [ tauS_dN * z_c4_dN ] <= 978775.0
  SyncA_c4_c3_c1: 60000.0 o_4 + 1000000.0 x_c4_c3 - tauD_c3 - 9025.0 z_c4_c1 + [ tauS_c1 * z_c4_c1 ] <= 920275.0
  SyncA_c4_c3_c2: 60000.0 o_4 + 1000000.0 x_c4_c3 - tauD_c3 - 21225.0 z_c4_c2 + [ tauS_c2 * z_c4_c2 ] <= 920275.0
  SyncA_c4_c3_c3: 60000.0 o_4 + 1000000.0 x_c4_c3 - tauD_c3 - 79725.0 z_c4_c3 + [ tauS_c3 * z_c4_c3 ] <= 920275.0
  SyncA_c4_c3_dN: 60000.0 o_4 + 1000000.0 x_c4_c3 - tauD_c3 - 35350.0 z_c4_dN + [ tauS_dN * z_c4_dN ] <= 920275.0
  SyncA_c4_dN_c1: 60000.0 o_4 + 1000000.0 x_c4_dN - tauD_dN - 9025.0 z_c4_c1 + [ tauS_c1 * z_c4_c1 ] <= 964650.0
  SyncA_c4_dN_c2: 60000.0 o_4 + 1000000.0 x_c4_dN - tauD_dN - 21225.0 z_c4_c2 + [ tauS_c2 * z_c4_c2 ] <= 964650.0
  SyncA_c4_dN_c3: 60000.0 o_4 + 1000000.0 x_c4_dN - tauD_dN - 79725.0 z_c4_c3 + [ tauS_c3 * z_c4_c3 ] <= 964650.0
  SyncA_c4_dN_dN: 60000.0 o_4 + 1000000.0 x_c4_dN - tauD_dN - 35350.0 z_c4_dN + [ tauS_dN * z_c4_dN ] <= 964650.0
  SVFirst_c1_c2: tauS_c2 - tauD_c1 + 30000.0 o_1 - 1000000.0 z_c1_c2 >= -865375.0
  SVFirst_c1_c3: tauS_c3 - tauD_c1 + 30000.0 o_1 - 1000000.0 z_c1_c3 >= -807450.0
  SVFirst_c1_c4: tauS_c4 - tauD_c1 + 30000.0 o_1 - 1000000.0 z_c1_c4 >= -880975.0
  SVFirst_c1_dN:  tauS_dN - tauD_c1 + 30000.0 o_1 - 1000000.0 z_c1_dN >= -846350.0
  SVFirst_c2_c1: tauS_c1 - tauD_c2 + 70000.0 o_2 - 1000000.0 z_c2_c1 >= -825375.0
  SVFirst_c2_c3: tauS_c3 - tauD_c2 + 70000.0 o_2 - 1000000.0 z_c2_c3 >= -791425.0
  SVFirst_c2_c4: tauS_c4 - tauD_c2 + 70000.0 o_2 - 1000000.0 z_c2_c4 >= -828775.0
  SVFirst_c2_dN:  tauS_dN - tauD_c2 + 70000.0 o_2 - 1000000.0 z_c2_dN >= -821725.0
  SVFirst_c3_c1: tauS_c1 - tauD_c3 + 30000.0 o_3 - 1000000.0 z_c3_c1 >= -807450.0
  SVFirst_c3_c2: tauS_c2 - tauD_c3 + 30000.0 o_3 - 1000000.0 z_c3_c2 >= -831425.0
  SVFirst_c3_c4: tauS_c4 - tauD_c3 + 30000.0 o_3 - 1000000.0 z_c3_c4 >= -810275.0
  SVFirst_c3_dN:  tauS_dN - tauD_c3 + 30000.0 o_3 - 1000000.0 z_c3_dN >= -827300.0
  SVFirst_c4_c1: tauS_c1 - tauD_c4 + 60000.0 o_4 - 1000000.0 z_c4_c1 >= -850975.0
  SVFirst_c4_c2: tauS_c2 - tauD_c4 + 60000.0 o_4 - 1000000.0 z_c4_c2 >= -838775.0
  SVFirst_c4_c3: tauS_c3 - tauD_c4 + 60000.0 o_4 - 1000000.0 z_c4_c3 >= -780275.0
  SVFirst_c4_dN:  tauS_dN - tauD_c4 + 60000.0 o_4 - 1000000.0 z_c4_dN >= -824650.0
  Precedence_Swap_c1:  p_1 - z_d0_c1 - z_c2_c1 - z_c3_c1 - z_c4_c1 = 0
  Precedence_Swap_c2:  p_2 - z_d0_c2 - z_c1_c2 - z_c3_c2 - z_c4_c2 = 0
  Precedence_Swap_c3:  p_3 - z_d0_c3 - z_c1_c3 - z_c2_c3 - z_c4_c3 = 0
  Precedence_Swap_c4:  p_4 - z_d0_c4 - z_c1_c4 - z_c2_c4 - z_c3_c4 = 0
  Order_c1:  o_1 - p_1 <= 0
  Order_c2:  o_2 - p_2 <= 0
  Order_c3:  o_3 - p_3 <= 0
  Order_c4:  o_4 - p_4 <= 0
  WorkingTimeS_c1:  tauS_c1 <= 876350.0
  WorkingTimeS_c2:  tauS_c2 <= 891725.0
  WorkingTimeS_c3:  tauS_c3 <= 857300.0
  WorkingTimeS_c4:  tauS_c4 <= 884650.0
  Freight_c1_c2:  k_c2 - k_c1 + 100000.0 x_c1_c2 <= 70000.0
  Freight_c1_c3:  k_c3 - k_c1 + 100000.0 x_c1_c3 <= 70000.0
  Freight_c1_c4:  k_c4 - k_c1 + 100000.0 x_c1_c4 <= 70000.0
  Freight_c1_dN:  k_dN - k_c1 + 100000.0 x_c1_dN <= 70000.0
  Freight_c2_c1:  k_c1 - k_c2 + 100000.0 x_c2_c1 <= 50000.0
  Freight_c2_c3:  k_c3 - k_c2 + 100000.0 x_c2_c3 <= 50000.0
  Freight_c2_c4:  k_c4 - k_c2 + 100000.0 x_c2_c4 <= 50000.0
  Freight_c2_dN:  k_dN - k_c2 + 100000.0 x_c2_dN <= 50000.0
  Freight_c3_c1:  k_c1 - k_c3 + 100000.0 x_c3_c1 <= 60000.0
  Freight_c3_c2:  k_c2 - k_c3 + 100000.0 x_c3_c2 <= 60000.0
  Freight_c3_c4:  k_c4 - k_c3 + 100000.0 x_c3_c4 <= 60000.0
  Freight_c3_dN:  k_dN - k_c3 + 100000.0 x_c3_dN <= 60000.0
  Freight_c4_c1:  k_c1 - k_c4 + 100000.0 x_c4_c1 <= 80000.0
  Freight_c4_c2:  k_c2 - k_c4 + 100000.0 x_c4_c2 <= 80000.0
  Freight_c4_c3:  k_c3 - k_c4 + 100000.0 x_c4_c3 <= 80000.0
  Freight_c4_dN:  k_dN - k_c4 + 100000.0 x_c4_dN <= 80000.0
  FuelDV_d0_c1:  phi_c1 - phi_d0 + 111681.0 x_d0_c1 <= 100000.0
  FuelDV_d0_c2:  phi_c2 - phi_d0 + 107566.0 x_d0_c2 <= 100000.0
  FuelDV_d0_c3:  phi_c3 - phi_d0 + 116779.0 x_d0_c3 <= 100000.0
  FuelDV_d0_c4:  phi_c4 - phi_d0 + 109460.0 x_d0_c4 <= 100000.0
  FuelDV_c1_c2:  phi_c2 - phi_c1 + 106590.0 x_c1_c2 <= 100000.0
  FuelDV_c1_c3:  phi_c3 - phi_c1 + 122090.0 x_c1_c3 <= 100000.0
  FuelDV_c1_c4:  phi_c4 - phi_c1 + 102415.0 x_c1_c4 <= 100000.0
  FuelDV_c1_dN:  phi_dN - phi_c1 + 111681.0 x_c1_dN <= 100000.0
  FuelDV_c2_c1:  phi_c1 - phi_c2 + 106590.0 x_c2_c1 <= 100000.0
  FuelDV_c2_c3:  phi_c3 - phi_c2 + 115675.0 x_c2_c3 <= 100000.0
  FuelDV_c2_c4:  phi_c4 - phi_c2 + 105680.0 x_c2_c4 <= 100000.0
  FuelDV_c2_dN:  phi_dN - phi_c2 + 107566.0 x_c2_dN <= 100000.0
  FuelDV_c3_c1:  phi_c1 - phi_c3 + 122090.0 x_c3_c1 <= 100000.0
  FuelDV_c3_c2:  phi_c2 - phi_c3 + 115675.0 x_c3_c2 <= 100000.0
  FuelDV_c3_c4:  phi_c4 - phi_c3 + 121334.0 x_c3_c4 <= 100000.0
  FuelDV_c3_dN:  phi_dN - phi_c3 + 116779.0 x_c3_dN <= 100000.0
  FuelDV_c4_c1:  phi_c1 - phi_c4 + 102415.0 x_c4_c1 <= 100000.0
  FuelDV_c4_c2:  phi_c2 - phi_c4 + 105680.0 x_c4_c2 <= 100000.0
  FuelDV_c4_c3:  phi_c3 - phi_c4 + 121334.0 x_c4_c3 <= 100000.0
  FuelDV_c4_dN:  phi_dN - phi_c4 + 109460.0 x_c4_dN <= 100000.0
  WorkingTimeD_c1:  tauD_c1 + 80000.0 p_1 <= 926350.0
  WorkingTimeD_c2:  tauD_c2 + 80000.0 p_2 <= 901725.0
  WorkingTimeD_c3:  tauD_c3 + 80000.0 p_3 <= 907300.0
  WorkingTimeD_c4:  tauD_c4 + 80000.0 p_4 <= 904650.0
Bounds
0 <= k_c1 <= 100000.0
0 <= k_c2 <= 100000.0
0 <= k_c3 <= 100000.0
0 <= k_c4 <= 100000.0
0 <= k_dN <= 100000.0
0 <= phi_c1 <= 100000.0
0 <= phi_c2 <= 100000.0
0 <= phi_c3 <= 100000.0
0 <= phi_c4 <= 100000.0
0 <= phi_d0 <= 100000.0
0 <= phi_dN <= 100000.0
0 <= tauD_c1 <= 1000000.0
0 <= tauD_c2 <= 1000000.0
0 <= tauD_c3 <= 1000000.0
0 <= tauD_c4 <= 1000000.0
0 <= tauD_d0 <= 1000000.0
0 <= tauD_dN <= 1000000.0
0 <= tauS_c1 <= 1000000.0
0 <= tauS_c2 <= 1000000.0
0 <= tauS_c3 <= 1000000.0
0 <= tauS_c4 <= 1000000.0
0 <= tauS_d0 <= 1000000.0
0 <= tauS_dN <= 1000000.0
Generals
  k_c1
  k_c2
  k_c3
  k_c4
  k_dN
  phi_c1
  phi_c2
  phi_c3
  phi_c4
  phi_d0
  phi_dN
  tauD_c1
  tauD_c2
  tauD_c3
  tauD_c4
  tauD_d0
  tauD_dN
  tauS_c1
  tauS_c2
  tauS_c3
  tauS_c4
  tauS_d0
  tauS_dN
Binary
  o_1
  o_2
  o_3
  o_4
  p_1
  p_2
  p_3
  p_4
  x_c1_c2
  x_c1_c3
  x_c1_c4
  x_c1_dN
  x_c2_c1
  x_c2_c3
  x_c2_c4
  x_c2_dN
  x_c3_c1
  x_c3_c2
  x_c3_c4
  x_c3_dN
  x_c4_c1
  x_c4_c2
  x_c4_c3
  x_c4_dN
  x_d0_c1
  x_d0_c2
  x_d0_c3
  x_d0_c4
  z_c1_c2
  z_c1_c3
  z_c1_c4
  z_c1_dN
  z_c2_c1
  z_c2_c3
  z_c2_c4
  z_c2_dN
  z_c3_c1
  z_c3_c2
  z_c3_c4
  z_c3_dN
  z_c4_c1
  z_c4_c2
  z_c4_c3
  z_c4_dN
  z_d0_c1
  z_d0_c2
  z_d0_c3
  z_d0_c4
End
