VRPTWMS/instances/mip/freight/Comparison/N4-C_DV10-C_SV50_F10_1_No_1.log

Gurobi 6.0.4 (win64) logging started 06/18/15 16:03:12

Read LP format model from file C:\MT\repository\VRPTWMS\instances\mip\freight\N4-C_DV10-C_SV50_F10_1_No_1.lp
Reading time = 0.00 seconds
(null): 129 rows, 72 columns, 447 nonzeros
Optimize a model with 129 rows, 72 columns and 447 nonzeros
Model has 64 quadratic constraints
Coefficient statistics:
  Matrix range    [1e+00, 1e+06]
  Objective range [4e+04, 1e+07]
  Bounds range    [1e+00, 1e+06]
  RHS range       [1e+00, 1e+06]
Presolve removed 15 rows and 8 columns
Presolve time: 0.01s
Presolved: 230 rows, 122 columns, 1076 nonzeros
Variable types: 58 continuous, 64 integer (46 binary)
Found heuristic solution: objective 2.109730e+07

Root relaxation: objective 4.343250e+06, 50 iterations, 0.00 seconds

    Nodes    |    Current Node    |     Objective Bounds      |     Work
 Expl Unexpl |  Obj  Depth IntInf | Incumbent    BestBd   Gap | It/Node Time

     0     0 4343250.48    0   22 2.1097e+07 4343250.48  79.4%     -    0s
     0     0 1.0746e+07    0   15 2.1097e+07 1.0746e+07  49.1%     -    0s
H    0     0                    2.095030e+07 1.0746e+07  48.7%     -    0s
     0     0 1.0816e+07    0    9 2.0950e+07 1.0816e+07  48.4%     -    0s
H    0     0                    2.091030e+07 1.0816e+07  48.3%     -    0s
H    0     0                    2.089070e+07 1.0816e+07  48.2%     -    0s
     0     0 1.0816e+07    0    9 2.0891e+07 1.0816e+07  48.2%     -    0s
     0     0 1.0816e+07    0    9 2.0891e+07 1.0816e+07  48.2%     -    0s
     0     0 1.0816e+07    0   21 2.0891e+07 1.0816e+07  48.2%     -    0s
     0     0 1.2761e+07    0   27 2.0891e+07 1.2761e+07  38.9%     -    0s
     0     0     cutoff    0      2.0891e+07 2.0891e+07  0.00%     -    0s

Cutting planes:
  Gomory: 1
  Implied bound: 1
  Clique: 6
  MIR: 1
  GUB cover: 2

Explored 0 nodes (169 simplex iterations) in 0.04 seconds
Thread count was 2 (of 4 available processors)

Optimal solution found (tolerance 1.00e-04)
Best objective 2.089070000000e+07, best bound 2.089070000000e+07, gap 0.0%
k_c1	80000.0
k_c2	50000.0
k_c3	99999.0
k_c4	100000.0
k_dN	-0.0
o_1	-0.0
o_2	-0.0
o_3	-0.0
o_4	-0.0
p_1	-0.0
p_2	-0.0
p_3	-0.0
p_4	-0.0
phi_c1	88123.0
phi_c2	7566.0
phi_c3	83221.0
phi_c4	90539.0
phi_d0	100000.0
phi_dN	-0.0
tauD_c1	795373.0
tauD_c2	849999.0
tauD_c3	249999.0
tauD_c4	250000.0
tauD_d0	-0.0
tauD_dN	1000000.0
tauS_c1	876350.0
tauS_c2	891725.0
tauS_c3	857300.0
tauS_c4	884650.0
tauS_d0	-0.0
tauS_dN	1000000.0
x_c1_c2	1.0
x_c2_dN	1.0
x_c3_dN	1.0
x_c4_c1	1.0
x_d0_c3	1.0
x_d0_c4	1.0
